SCIP version 8.0.4 [precision: 8 byte] [memory: block] [mode: optimized] [LP solver: Soplex 6.0.4] [GitHash: a8e51afd1e]
Copyright (c) 2002-2023 Zuse Institute Berlin (ZIB)

External libraries: 
  Soplex 6.0.4         Linear Programming Solver developed at Zuse Institute Berlin (soplex.zib.de) [GitHash: 950b1658]
  CppAD 20180000.0     Algorithmic Differentiation of C++ algorithms developed by B. Bell (github.com/coin-or/CppAD)
  ZLIB 1.2.13          General purpose compression library by J. Gailly and M. Adler (zlib.net)
  AMPL/MP 4e2d45c4     AMPL .nl file reader library (github.com/ampl/mp)
  PaPILO 2.1.3         parallel presolve for integer and linear optimization (github.com/scipopt/papilo) [GitHash: e15d7b2]
  bliss 0.77           Computing Graph Automorphism Groups by T. Junttila and P. Kaski (www.tcs.hut.fi/Software/bliss/)
  Ipopt 3.14.12        Interior Point Optimizer developed by A. Waechter et.al. (github.com/coin-or/Ipopt)

user parameter file <scip.set> not found - using default parameters
read problem <C:\Users\z98hu\AppData\Local\Temp\tmpnaoqzpbp.pyomo.nl>
============

original problem has 2 variables (0 bin, 0 int, 0 impl, 2 cont) and 1 constraints

solve problem
=============

feasible solution found by trivial heuristic after 0.0 seconds, objective value 0.000000e+00
presolving:
presolving (1 rounds: 1 fast, 0 medium, 0 exhaustive):
 1 deleted vars, 0 deleted constraints, 0 added constraints, 0 tightened bounds, 0 added holes, 0 changed sides, 0 changed coefficients
 0 implications, 0 cliques
transformed 1/1 original solutions to the transformed problem space
Presolving Time: 0.00

SCIP Status        : problem is solved [optimal solution found]
Solving Time (sec) : 0.00
Solving Nodes      : 0
Primal Bound       : +0.00000000000000e+00 (1 solutions)
Dual Bound         : +0.00000000000000e+00
Gap                : 0.00 %
X=10.0, Y=100000.00000000001

======================================================================
SCIP version 8.0.4 [precision: 8 byte] [memory: block] [mode: optimized] [LP solver: Soplex 6.0.4] [GitHash: a8e51afd1e]
Copyright (c) 2002-2023 Zuse Institute Berlin (ZIB)

External libraries: 
  Soplex 6.0.4         Linear Programming Solver developed at Zuse Institute Berlin (soplex.zib.de) [GitHash: 950b1658]
  CppAD 20180000.0     Algorithmic Differentiation of C++ algorithms developed by B. Bell (github.com/coin-or/CppAD)
  ZLIB 1.2.13          General purpose compression library by J. Gailly and M. Adler (zlib.net)
  AMPL/MP 4e2d45c4     AMPL .nl file reader library (github.com/ampl/mp)
  PaPILO 2.1.3         parallel presolve for integer and linear optimization (github.com/scipopt/papilo) [GitHash: e15d7b2]
  bliss 0.77           Computing Graph Automorphism Groups by T. Junttila and P. Kaski (www.tcs.hut.fi/Software/bliss/)
  Ipopt 3.14.12        Interior Point Optimizer developed by A. Waechter et.al. (github.com/coin-or/Ipopt)

user parameter file <scip.set> not found - using default parameters
read problem <C:\Users\z98hu\AppData\Local\Temp\tmp9aftmzhw.pyomo.nl>
============

original problem has 5 variables (0 bin, 0 int, 0 impl, 5 cont) and 1 constraints

solve problem
=============

solution violates original bounds of variable <objconstant> [5,5] solution value <0>
all 1 solutions given by solution candidate storage are infeasible

feasible solution found by trivial heuristic after 0.0 seconds, objective value 4.000250e+05
presolving:
problem infeasible or unbounded: variable <t_x3> with objective 1 can be made infinitely small
presolving (1 rounds: 1 fast, 0 medium, 0 exhaustive):
 1 deleted vars, 0 deleted constraints, 0 added constraints, 0 tightened bounds, 0 added holes, 0 changed sides, 0 changed coefficients
 0 implications, 0 cliques
transformed 2/2 original solutions to the transformed problem space
presolving detected unboundedness
Presolving Time: 0.00

SCIP Status        : problem is solved [unbounded]
Solving Time (sec) : 0.00
Solving Nodes      : 0
Primal Bound       : -1.00000000000000e+20 (2 solutions)
Dual Bound         : -1.00000000000000e+20
Gap                : 0.00 %
WARNING: Loading a SolverResults object with a warning status into
    model.name="unknown";
      - termination condition: unbounded
      - message from solver: unbounded

======================================================================
SCIP version 8.0.4 [precision: 8 byte] [memory: block] [mode: optimized] [LP solver: Soplex 6.0.4] [GitHash: a8e51afd1e]
Copyright (c) 2002-2023 Zuse Institute Berlin (ZIB)

External libraries: 
  Soplex 6.0.4         Linear Programming Solver developed at Zuse Institute Berlin (soplex.zib.de) [GitHash: 950b1658]
  CppAD 20180000.0     Algorithmic Differentiation of C++ algorithms developed by B. Bell (github.com/coin-or/CppAD)
  ZLIB 1.2.13          General purpose compression library by J. Gailly and M. Adler (zlib.net)
  AMPL/MP 4e2d45c4     AMPL .nl file reader library (github.com/ampl/mp)
  PaPILO 2.1.3         parallel presolve for integer and linear optimization (github.com/scipopt/papilo) [GitHash: e15d7b2]
  bliss 0.77           Computing Graph Automorphism Groups by T. Junttila and P. Kaski (www.tcs.hut.fi/Software/bliss/)
  Ipopt 3.14.12        Interior Point Optimizer developed by A. Waechter et.al. (github.com/coin-or/Ipopt)

user parameter file <scip.set> not found - using default parameters
read problem <C:\Users\z98hu\AppData\Local\Temp\tmp1fub0qru.pyomo.nl>
============

original problem has 6 variables (0 bin, 0 int, 0 impl, 6 cont) and 2 constraints

solve problem
=============

solution violates original bounds of variable <objconstant> [5,5] solution value <0>
all 1 solutions given by solution candidate storage are infeasible

presolving:
(round 1, fast)       1 del vars, 0 del conss, 0 add conss, 1 chg bounds, 0 chg sides, 0 chg coeffs, 0 upgd conss, 0 impls, 0 clqs
   (0.0s) running MILP presolver
   (0.0s) MILP presolver (3 rounds): 1 aggregations, 4 fixings, 0 bound changes
presolving (2 rounds: 2 fast, 1 medium, 1 exhaustive):
 6 deleted vars, 2 deleted constraints, 0 added constraints, 1 tightened bounds, 0 added holes, 0 changed sides, 0 changed coefficients
 0 implications, 0 cliques
transformed 1/1 original solutions to the transformed problem space
Presolving Time: 0.00

SCIP Status        : problem is solved [optimal solution found]
Solving Time (sec) : 0.00
Solving Nodes      : 0
Primal Bound       : -1.00000000000000e+08 (1 solutions)
Dual Bound         : -1.00000000000000e+08
Gap                : 0.00 %
> e:\works\jubilant-adventure2\microgrid_base\cplex_abnormal_exit_condition_debug\alternative_solver.py(141)<module>()
-> print("UNBOUND TERMINATION CONDITION:", result_unbound.solver.termination_condition)
(Pdb) {'Problem': [{'Lower bound': -inf, 'Upper bound': inf, 'Number of objectives': 1, 'Number of constraints': 0, 'Number of variables': 4, 'Sense': 'unknown'}], 'Solver': [{'Status': 'warning', 'Message': 'unbounded', 'Termination condition': 'unbounded', 'Id': 300, 'Error rc': 0, 'Time': 0.0, 'Gap': 0.0, 'Primal bound': -1e+20, 'Dual bound': -1e+20}]}
(Pdb) {'Problem': [{'Lower bound': -inf, 'Upper bound': -100000000.0, 'Number of objectives': 1, 'Number of constraints': 0, 'Number of variables': 5, 'Sense': 'unknown'}], 'Solver': [{'Status': 'ok', 'Message': 'optimal solution found', 'Termination condition': 'optimal', 'Id': 0, 'Error rc': 0, 'Time': 0.0, 'Gap': 0.0, 'Primal bound': -100000000.0, 'Dual bound': -100000000.0}], 'Solution': [OrderedDict([('number of solutions', 0), ('number of solutions displayed', 0)])]}
(Pdb) <pyomo.core.base.PyomoModel.ModelSolutions object at 0x000001D6D0A34150>
(Pdb) ['__class__', '__delattr__', '__dict__', '__dir__', '__doc__', '__eq__', '__format__', '__ge__', '__getattribute__', '__getitem__', '__getstate__', '__gt__', '__hash__', '__init__', '__init_subclass__', '__le__', '__len__', '__lt__', '__module__', '__ne__', '__new__', '__reduce__', '__reduce_ex__', '__repr__', '__setattr__', '__setstate__', '__sizeof__', '__str__', '__subclasshook__', '__weakref__', '_instance', 'add_solution', 'add_symbol_map', 'clear', 'delete_symbol_map', 'index', 'load_from', 'select', 'solutions', 'store_to', 'symbol_map']
(Pdb) [<pyomo.core.base.PyomoModel.ModelSolution object at 0x000001D6CFF12290>]
(Pdb) 